60

 0   1   2   3   4   5   6   7   8   9   1   2   3   4   5   6   7   8   9  10   2   3   4   5   6   7   8   9  10  11   3   4   5   6   7   8   9  10  11  12   4   5   6   7   8   9  10  11  12  13   5   6   7   8   9  10  11  12  13  14  
 1   0   1   2   3   4   5   6   7   8   2   1   2   3   4   5   6   7   8   9   3   2   3   4   5   6   7   8   9  10   4   3   4   5   6   7   8   9  10  11   5   4   5   6   7   8   9  10  11  12   6   5   6   7   8   9  10  11  12  13  
 2   1   0   1   2   3   4   5   6   7   3   2   1   2   3   4   5   6   7   8   4   3   2   3   4   5   6   7   8   9   5   4   3   4   5   6   7   8   9  10   6   5   4   5   6   7   8   9  10  11   7   6   5   6   7   8   9  10  11  12  
 3   2   1   0   1   2   3   4   5   6   4   3   2   1   2   3   4   5   6   7   5   4   3   2   3   4   5   6   7   8   6   5   4   3   4   5   6   7   8   9   7   6   5   4   5   6   7   8   9  10   8   7   6   5   6   7   8   9  10  11  
 4   3   2   1   0   1   2   3   4   5   5   4   3   2   1   2   3   4   5   6   6   5   4   3   2   3   4   5   6   7   7   6   5   4   3   4   5   6   7   8   8   7   6   5   4   5   6   7   8   9   9   8   7   6   5   6   7   8   9  10  
 5   4   3   2   1   0   1   2   3   4   6   5   4   3   2   1   2   3   4   5   7   6   5   4   3   2   3   4   5   6   8   7   6   5   4   3   4   5   6   7   9   8   7   6   5   4   5   6   7   8  10   9   8   7   6   5   6   7   8   9  
 6   5   4   3   2   1   0   1   2   3   7   6   5   4   3   2   1   2   3   4   8   7   6   5   4   3   2   3   4   5   9   8   7   6   5   4   3   4   5   6  10   9   8   7   6   5   4   5   6   7  11  10   9   8   7   6   5   6   7   8  
 7   6   5   4   3   2   1   0   1   2   8   7   6   5   4   3   2   1   2   3   9   8   7   6   5   4   3   2   3   4  10   9   8   7   6   5   4   3   4   5  11  10   9   8   7   6   5   4   5   6  12  11  10   9   8   7   6   5   6   7  
 8   7   6   5   4   3   2   1   0   1   9   8   7   6   5   4   3   2   1   2  10   9   8   7   6   5   4   3   2   3  11  10   9   8   7   6   5   4   3   4  12  11  10   9   8   7   6   5   4   5  13  12  11  10   9   8   7   6   5   6  
 9   8   7   6   5   4   3   2   1   0  10   9   8   7   6   5   4   3   2   1  11  10   9   8   7   6   5   4   3   2  12  11  10   9   8   7   6   5   4   3  13  12  11  10   9   8   7   6   5   4  14  13  12  11  10   9   8   7   6   5  
 1   2   3   4   5   6   7   8   9  10   0   1   2   3   4   5   6   7   8   9   1   2   3   4   5   6   7   8   9  10   2   3   4   5   6   7   8   9  10  11   3   4   5   6   7   8   9  10  11  12   4   5   6   7   8   9  10  11  12  13  
 2   1   2   3   4   5   6   7   8   9   1   0   1   2   3   4   5   6   7   8   2   1   2   3   4   5   6   7   8   9   3   2   3   4   5   6   7   8   9  10   4   3   4   5   6   7   8   9  10  11   5   4   5   6   7   8   9  10  11  12  
 3   2   1   2   3   4   5   6   7   8   2   1   0   1   2   3   4   5   6   7   3   2   1   2   3   4   5   6   7   8   4   3   2   3   4   5   6   7   8   9   5   4   3   4   5   6   7   8   9  10   6   5   4   5   6   7   8   9  10  11  
 4   3   2   1   2   3   4   5   6   7   3   2   1   0   1   2   3   4   5   6   4   3   2   1   2   3   4   5   6   7   5   4   3   2   3   4   5   6   7   8   6   5   4   3   4   5   6   7   8   9   7   6   5   4   5   6   7   8   9  10  
 5   4   3   2   1   2   3   4   5   6   4   3   2   1   0   1   2   3   4   5   5   4   3   2   1   2   3   4   5   6   6   5   4   3   2   3   4   5   6   7   7   6   5   4   3   4   5   6   7   8   8   7   6   5   4   5   6   7   8   9  
 6   5   4   3   2   1   2   3   4   5   5   4   3   2   1   0   1   2   3   4   6   5   4   3   2   1   2   3   4   5   7   6   5   4   3   2   3   4   5   6   8   7   6   5   4   3   4   5   6   7   9   8   7   6   5   4   5   6   7   8  
 7   6   5   4   3   2   1   2   3   4   6   5   4   3   2   1   0   1   2   3   7   6   5   4   3   2   1   2   3   4   8   7   6   5   4   3   2   3   4   5   9   8   7   6   5   4   3   4   5   6  10   9   8   7   6   5   4   5   6   7  
 8   7   6   5   4   3   2   1   2   3   7   6   5   4   3   2   1   0   1   2   8   7   6   5   4   3   2   1   2   3   9   8   7   6   5   4   3   2   3   4  10   9   8   7   6   5   4   3   4   5  11  10   9   8   7   6   5   4   5   6  
 9   8   7   6   5   4   3   2   1   2   8   7   6   5   4   3   2   1   0   1   9   8   7   6   5   4   3   2   1   2  10   9   8   7   6   5   4   3   2   3  11  10   9   8   7   6   5   4   3   4  12  11  10   9   8   7   6   5   4   5  
10   9   8   7   6   5   4   3   2   1   9   8   7   6   5   4   3   2   1   0  10   9   8   7   6   5   4   3   2   1  11  10   9   8   7   6   5   4   3   2  12  11  10   9   8   7   6   5   4   3  13  12  11  10   9   8   7   6   5   4  
 2   3   4   5   6   7   8   9  10  11   1   2   3   4   5   6   7   8   9  10   0   1   2   3   4   5   6   7   8   9   1   2   3   4   5   6   7   8   9  10   2   3   4   5   6   7   8   9  10  11   3   4   5   6   7   8   9  10  11  12  
 3   2   3   4   5   6   7   8   9  10   2   1   2   3   4   5   6   7   8   9   1   0   1   2   3   4   5   6   7   8   2   1   2   3   4   5   6   7   8   9   3   2   3   4   5   6   7   8   9  10   4   3   4   5   6   7   8   9  10  11  
 4   3   2   3   4   5   6   7   8   9   3   2   1   2   3   4   5   6   7   8   2   1   0   1   2   3   4   5   6   7   3   2   1   2   3   4   5   6   7   8   4   3   2   3   4   5   6   7   8   9   5   4   3   4   5   6   7   8   9  10  
 5   4   3   2   3   4   5   6   7   8   4   3   2   1   2   3   4   5   6   7   3   2   1   0   1   2   3   4   5   6   4   3   2   1   2   3   4   5   6   7   5   4   3   2   3   4   5   6   7   8   6   5   4   3   4   5   6   7   8   9  
 6   5   4   3   2   3   4   5   6   7   5   4   3   2   1   2   3   4   5   6   4   3   2   1   0   1   2   3   4   5   5   4   3   2   1   2   3   4   5   6   6   5   4   3   2   3   4   5   6   7   7   6   5   4   3   4   5   6   7   8  
 7   6   5   4   3   2   3   4   5   6   6   5   4   3   2   1   2   3   4   5   5   4   3   2   1   0   1   2   3   4   6   5   4   3   2   1   2   3   4   5   7   6   5   4   3   2   3   4   5   6   8   7   6   5   4   3   4   5   6   7  
 8   7   6   5   4   3   2   3   4   5   7   6   5   4   3   2   1   2   3   4   6   5   4   3   2   1   0   1   2   3   7   6   5   4   3   2   1   2   3   4   8   7   6   5   4   3   2   3   4   5   9   8   7   6   5   4   3   4   5   6  
 9   8   7   6   5   4   3   2   3   4   8   7   6   5   4   3   2   1   2   3   7   6   5   4   3   2   1   0   1   2   8   7   6   5   4   3   2   1   2   3   9   8   7   6   5   4   3   2   3   4  10   9   8   7   6   5   4   3   4   5  
10   9   8   7   6   5   4   3   2   3   9   8   7   6   5   4   3   2   1   2   8   7   6   5   4   3   2   1   0   1   9   8   7   6   5   4   3   2   1   2  10   9   8   7   6   5   4   3   2   3  11  10   9   8   7   6   5   4   3   4  
11  10   9   8   7   6   5   4   3   2  10   9   8   7   6   5   4   3   2   1   9   8   7   6   5   4   3   2   1   0  10   9   8   7   6   5   4   3   2   1  11  10   9   8   7   6   5   4   3   2  12  11  10   9   8   7   6   5   4   3  
 3   4   5   6   7   8   9  10  11  12   2   3   4   5   6   7   8   9  10  11   1   2   3   4   5   6   7   8   9  10   0   1   2   3   4   5   6   7   8   9   1   2   3   4   5   6   7   8   9  10   2   3   4   5   6   7   8   9  10  11  
 4   3   4   5   6   7   8   9  10  11   3   2   3   4   5   6   7   8   9  10   2   1   2   3   4   5   6   7   8   9   1   0   1   2   3   4   5   6   7   8   2   1   2   3   4   5   6   7   8   9   3   2   3   4   5   6   7   8   9  10  
 5   4   3   4   5   6   7   8   9  10   4   3   2   3   4   5   6   7   8   9   3   2   1   2   3   4   5   6   7   8   2   1   0   1   2   3   4   5   6   7   3   2   1   2   3   4   5   6   7   8   4   3   2   3   4   5   6   7   8   9  
 6   5   4   3   4   5   6   7   8   9   5   4   3   2   3   4   5   6   7   8   4   3   2   1   2   3   4   5   6   7   3   2   1   0   1   2   3   4   5   6   4   3   2   1   2   3   4   5   6   7   5   4   3   2   3   4   5   6   7   8  
 7   6   5   4   3   4   5   6   7   8   6   5   4   3   2   3   4   5   6   7   5   4   3   2   1   2   3   4   5   6   4   3   2   1   0   1   2   3   4   5   5   4   3   2   1   2   3   4   5   6   6   5   4   3   2   3   4   5   6   7  
 8   7   6   5   4   3   4   5   6   7   7   6   5   4   3   2   3   4   5   6   6   5   4   3   2   1   2   3   4   5   5   4   3   2   1   0   1   2   3   4   6   5   4   3   2   1   2   3   4   5   7   6   5   4   3   2   3   4   5   6  
 9   8   7   6   5   4   3   4   5   6   8   7   6   5   4   3   2   3   4   5   7   6   5   4   3   2   1   2   3   4   6   5   4   3   2   1   0   1   2   3   7   6   5   4   3   2   1   2   3   4   8   7   6   5   4   3   2   3   4   5  
10   9   8   7   6   5   4   3   4   5   9   8   7   6   5   4   3   2   3   4   8   7   6   5   4   3   2   1   2   3   7   6   5   4   3   2   1   0   1   2   8   7   6   5   4   3   2   1   2   3   9   8   7   6   5   4   3   2   3   4  
11  10   9   8   7   6   5   4   3   4  10   9   8   7   6   5   4   3   2   3   9   8   7   6   5   4   3   2   1   2   8   7   6   5   4   3   2   1   0   1   9   8   7   6   5   4   3   2   1   2  10   9   8   7   6   5   4   3   2   3  
12  11  10   9   8   7   6   5   4   3  11  10   9   8   7   6   5   4   3   2  10   9   8   7   6   5   4   3   2   1   9   8   7   6   5   4   3   2   1   0  10   9   8   7   6   5   4   3   2   1  11  10   9   8   7   6   5   4   3   2  
 4   5   6   7   8   9  10  11  12  13   3   4   5   6   7   8   9  10  11  12   2   3   4   5   6   7   8   9  10  11   1   2   3   4   5   6   7   8   9  10   0   1   2   3   4   5   6   7   8   9   1   2   3   4   5   6   7   8   9  10  
 5   4   5   6   7   8   9  10  11  12   4   3   4   5   6   7   8   9  10  11   3   2   3   4   5   6   7   8   9  10   2   1   2   3   4   5   6   7   8   9   1   0   1   2   3   4   5   6   7   8   2   1   2   3   4   5   6   7   8   9  
 6   5   4   5   6   7   8   9  10  11   5   4   3   4   5   6   7   8   9  10   4   3   2   3   4   5   6   7   8   9   3   2   1   2   3   4   5   6   7   8   2   1   0   1   2   3   4   5   6   7   3   2   1   2   3   4   5   6   7   8  
 7   6   5   4   5   6   7   8   9  10   6   5   4   3   4   5   6   7   8   9   5   4   3   2   3   4   5   6   7   8   4   3   2   1   2   3   4   5   6   7   3   2   1   0   1   2   3   4   5   6   4   3   2   1   2   3   4   5   6   7  
 8   7   6   5   4   5   6   7   8   9   7   6   5   4   3   4   5   6   7   8   6   5   4   3   2   3   4   5   6   7   5   4   3   2   1   2   3   4   5   6   4   3   2   1   0   1   2   3   4   5   5   4   3   2   1   2   3   4   5   6  
 9   8   7   6   5   4   5   6   7   8   8   7   6   5   4   3   4   5   6   7   7   6   5   4   3   2   3   4   5   6   6   5   4   3   2   1   2   3   4   5   5   4   3   2   1   0   1   2   3   4   6   5   4   3   2   1   2   3   4   5  
10   9   8   7   6   5   4   5   6   7   9   8   7   6   5   4   3   4   5   6   8   7   6   5   4   3   2   3   4   5   7   6   5   4   3   2   1   2   3   4   6   5   4   3   2   1   0   1   2   3   7   6   5   4   3   2   1   2   3   4  
11  10   9   8   7   6   5   4   5   6  10   9   8   7   6   5   4   3   4   5   9   8   7   6   5   4   3   2   3   4   8   7   6   5   4   3   2   1   2   3   7   6   5   4   3   2   1   0   1   2   8   7   6   5   4   3   2   1   2   3  
12  11  10   9   8   7   6   5   4   5  11  10   9   8   7   6   5   4   3   4  10   9   8   7   6   5   4   3   2   3   9   8   7   6   5   4   3   2   1   2   8   7   6   5   4   3   2   1   0   1   9   8   7   6   5   4   3   2   1   2  
13  12  11  10   9   8   7   6   5   4  12  11  10   9   8   7   6   5   4   3  11  10   9   8   7   6   5   4   3   2  10   9   8   7   6   5   4   3   2   1   9   8   7   6   5   4   3   2   1   0  10   9   8   7   6   5   4   3   2   1  
 5   6   7   8   9  10  11  12  13  14   4   5   6   7   8   9  10  11  12  13   3   4   5   6   7   8   9  10  11  12   2   3   4   5   6   7   8   9  10  11   1   2   3   4   5   6   7   8   9  10   0   1   2   3   4   5   6   7   8   9  
 6   5   6   7   8   9  10  11  12  13   5   4   5   6   7   8   9  10  11  12   4   3   4   5   6   7   8   9  10  11   3   2   3   4   5   6   7   8   9  10   2   1   2   3   4   5   6   7   8   9   1   0   1   2   3   4   5   6   7   8  
 7   6   5   6   7   8   9  10  11  12   6   5   4   5   6   7   8   9  10  11   5   4   3   4   5   6   7   8   9  10   4   3   2   3   4   5   6   7   8   9   3   2   1   2   3   4   5   6   7   8   2   1   0   1   2   3   4   5   6   7  
 8   7   6   5   6   7   8   9  10  11   7   6   5   4   5   6   7   8   9  10   6   5   4   3   4   5   6   7   8   9   5   4   3   2   3   4   5   6   7   8   4   3   2   1   2   3   4   5   6   7   3   2   1   0   1   2   3   4   5   6  
 9   8   7   6   5   6   7   8   9  10   8   7   6   5   4   5   6   7   8   9   7   6   5   4   3   4   5   6   7   8   6   5   4   3   2   3   4   5   6   7   5   4   3   2   1   2   3   4   5   6   4   3   2   1   0   1   2   3   4   5  
10   9   8   7   6   5   6   7   8   9   9   8   7   6   5   4   5   6   7   8   8   7   6   5   4   3   4   5   6   7   7   6   5   4   3   2   3   4   5   6   6   5   4   3   2   1   2   3   4   5   5   4   3   2   1   0   1   2   3   4  
11  10   9   8   7   6   5   6   7   8  10   9   8   7   6   5   4   5   6   7   9   8   7   6   5   4   3   4   5   6   8   7   6   5   4   3   2   3   4   5   7   6   5   4   3   2   1   2   3   4   6   5   4   3   2   1   0   1   2   3  
12  11  10   9   8   7   6   5   6   7  11  10   9   8   7   6   5   4   5   6  10   9   8   7   6   5   4   3   4   5   9   8   7   6   5   4   3   2   3   4   8   7   6   5   4   3   2   1   2   3   7   6   5   4   3   2   1   0   1   2  
13  12  11  10   9   8   7   6   5   6  12  11  10   9   8   7   6   5   4   5  11  10   9   8   7   6   5   4   3   4  10   9   8   7   6   5   4   3   2   3   9   8   7   6   5   4   3   2   1   2   8   7   6   5   4   3   2   1   0   1  
14  13  12  11  10   9   8   7   6   5  13  12  11  10   9   8   7   6   5   4  12  11  10   9   8   7   6   5   4   3  11  10   9   8   7   6   5   4   3   2  10   9   8   7   6   5   4   3   2   1   9   8   7   6   5   4   3   2   1   0  

 0   0   0   0   0   0   6  13  35   0   2   1  61   0   1   0   0   0   1   0   0   1   0   1   0   2   0   0   0   0   0  60   7   1   1   0   0  22  13   1   0   0   0   0  87   0   0   0   0   0   0   1   0   0   1  15   1   0  10   0  
 0   0   0   0   0   0   0   0   0   0   1   0   1   1   0   0   0   0   1   1   0   1  15   2  32   0   0   0   0   1   6   0   1   0   0   0   0   0   0   0   0   0   0   0   0  65   0   0   0   0   0  68   5   0   0   1   1   1   0   0  
 3   0   0   1   0   0   0   1   0   1   0   1   0   0   0   0   0   0   0   8   1   1   0   7   1  36   0   0   0   1   0  47   0   0   0   0   0   0   0   0   0   0   0   0   0   0   0  20  15   0   1   2   0   0   0   0   1   0   0   0  
 5   0   0   0   0   1   1   2  19   0   0   1   0   1  10   1   0  19   0   0  67  55   0   2   0   0   0   1   0   2   0   0   0   0   0   1   0   1   0   0   0   0   0   0   0   1   0   0   1   0  18  67   1  24   0   0   0  67   0   0  
 0   0   0   0   0   0   0  51   0   0   0   1   1   1   0   0   0   0   1   0   0   0   0   0   0   0  96  39   0   1   1   0   0   1   0   1   0   0   7   0   0   0   0   2   0   0   1   0   0   0   0   0   0  34  38   0   1   1   0   0  
 0   0  67   0   0   0   0   1   0   0   0  28  40  48   0  55   1   0  37   1   1   0  25   0   0   0   0  35   3   0   1  12   0   0   0   0   0  95   0   0   1   0   8   0  11   0   0   0   3   4   0   0   0  38   0  18  24   0   0   0  
 1   0   0   1   0   1   0   0   0   1   0   1   0   0  13   0   0   1   0   0   1   1   0   1   1   0   0   0   0   0   0  25   8   0   4   0   0   0   0   0   0  21   0   0   0   0   1   1   0   5   0   0   0  65   0   0   0   0   0   1  
 1   4   0   0   0   0  53   0   1   0   0   0   0  40   0   0   1   0   1   0   0  14   1   0   0   0   0   0   0   0   1   0   0  52   1   0  90   1   0   0   1  84   0   1   0   0   8   1   0  42   0   1  35   0  43   1   1  12  34   1  
 0   0   0   0   1   1   0   1   0   0   1   0   0   0  34   1   1   0   0   0   0   0   0   4   1  32   0   2   0   0   8   0   1   2   0   0   3   0   0   1   0  13   0   1   1   1   0   0  80   0   0   0   0   0  37   1   0   0   0   1  
 0   0   2  18   3   1   1   0   1   0   0   0   0   0   0   0   0   1   0  22   0   0   0   1   0   1   5   0   0   1   0   0   0   0   0   0   0   1  45   0   1   0   0   0   9   0   0   0   1   0  12   0   8   0   1  16   0   0   0   0  
 0   0  17   0   1   1   1   1   0   0   0   1   1   0   1   0   0   4   0   0   0  93   0   0   0   0   1   1   0   1   0   1   6   0  25  68   0   7   0   1   0   0   7   1   0   1   0   1   8   0   3   1   1   7   1   0   1   0  62   1  
 1   0  98   0   0   0   1   0   0   1   0   0   0   0  30   1  19   0   0  46   0   0   1   1   0  45  19   0   0   1   0   0   1   1   1   0   1  88   1   0   2   1   0   0   7   0   0   0   1   0  11   0   0   0   0  38   0   0  92   2  
 1   3   0   0   0  53   0   1   0   0   0   0   0   0   0   0   0   0   0   1   1   0   0  95   0   1   0   0   3   0   0  28   0  13   0   0   0   1  10   4  98   0   3   0   0   0   0   0   0   0   0   0  37   0   0   0   1   0   0   0  
 1   0   0  23  31   0   0   0   0   0   4   0   0   0  10   0   0  13   0   1   1   0   0   0   6  43   0   1   1   0   0   0   0   1   0   0  57   1   0   0   0   1   0   0   0   0   0   0   0  37   1   0   0  11   0   4   0   0   0  41  
 0   0   0   0  66   1   0   0   0   0   0  75   0   0   0   0  40   0   0   0   0   0   0   4   0   1   0   0   0   0   0   1   1   1   0   1   0   1   0  26   0   0   1   0   0   4   0   0   0   1   1   1   0   0   0   5   0   0   0   1  
 1   0   0   1   0   0   0   0   1   0   0   1   0   1  47   0   0   0   6   1   0  53   1   0   0   0   0   0   0   0   0   0   1   1   0   0   0   0   4   0   1   0   1   0  41   0   0  14   1   1   1  13   0   0   0   0   0   0   0  63  
 2   1   1  31   1   0   0   0   0  58   0   1   0   0   1   0   0   1   0   0   1   0   0   0   0   1   0   3   0   0   1   0   0   2   1   0   0   3   1   0   0   0   0   0   1  24   0   0   0   0  10   0   0   1   0   0   2   1   1   0  
 1   0   0   0   1   0   0  47   0   0   0   0   0  28   0   0   1   0   0   1  29   0   1  30   1   0   5   0   6   0   1   0   1   0   0   0  36   0   0   0   0   0   0   0   0   1   0   0   0   1   0   0   0   0   1   0   1   0   0   0  
 8   0   1   0   0   0   1   0   1   7   0   0   0   1   1   1  73   0   0   0   0   0   4   0   0   0   0   0   1   0   0   0   0   1   0   0   0   0   1   1   0   0   0   1   0   0   1   0   1   0   1   0   0   1   0   1   0   0   0  19  
 0   0   0   0   1   0   0   0   3  10   0   0   0   0   1   1   0   0   1   0   0   0  13   0   0   0   0   0   0   0   0   0   1   0   0   7   0   0   0   0   0   8   0  33   0   1   1  95   0   0   0   0   0   0   0   1   0  13   0  42  
 0   0   0   0   2   1   0   0   0   0   1  16   0  23   0   0   0   1   1  23   0   0   1   0   0  35   0   0   0   0   1   0   1   0   0   0   0   0   1   0   0   0   1   0   0   0   8   8   0   0   2   0   0   8   0   0   0   1   0   0  
 1   0   0   0   1   1   0   3   0   0   0  12   0   0   0   1   0   0   0   0  84   0   0   1   1   0  16   0   0   0   0   0   0  46   0  38   1   7   0   0   0   0   1   0   0   2  24   0   0   0   0   0   1   1   0   0   9   0   1   1  
 0   0   0   9   0  93   0  10  15   5  73   1   1   0  38   0   0   0   0   0   0   1   0   0   1   0   0   1   1  13   0   0   1   1   0   0   1   0   0   0   0   1   9   0   0   5   0   1   0  17   0   0   0   0  11   0   0   0   0  78  
 4  29   0   0   3   1   0   0  53   0  15   1   0   0   1   0   0  16   0   0   0  10   0   0   0   0   1   0   0   6   0   0   0   0   0   0   1   1   8   0   0   0   0   1   1   0   0   0   1   1   2   0   0   0   1   0   1   0   0   1  
 0   0   1   1   9  10   0   1   0   0   1   0   0   0   0   0   0   0   1   1   0   0   0   4   0   0   0   0   0  28   0   0  20   0   0   0   9   0   1   0   1   1   1   0   3  80   0   0   0   0   0   1   1  31   0   0   1   1   0   0  
 0  30   1   1   1   0  14   0   0   0   0   0   0  11   1   1   1   0   0   0   0   0   1   0   0   0   0   0   0   0   0   1   1   0   5   0   1   0   0   0   1   1   0   0   1   0   0   4   1   0   0   0  20   0  22   0   0   0   1   1  
16   0   0   0   0   0   1   1   1  77   0   0   0   1   0   0   0   1   3   0   1   0   1   0   0   0   0   0   0   0   1   0   0   2   0   1   0   1   0   0   0   7   0   0   2   0   1   1   1   1   0   0   1  15   0   0   0   1   0   1  
 0   1   0   0   0  55   1   0   0   0   1   0   1   0   0   0   0   0   4   0   1   1   1   0   8   0   0   0   0   1   0   0   0   0   0   0   1   0   2   0   0   1   0  46   0   1   0   0   0   0  78   1   0   1   5  22   1   0   0   0  
 0   1   0   1   0   0   0   0   0   0   0   1   0   0   0   2   0   0  19   0   0   1   0   0   1   0   0   5   0   1   1   1   1  15   0   0   0   0   0   0  92   0   0   0   0   0   0   0   1   0   1   0   3   0   0   0  21  97   0   0  
 1   1   0   0   0   0   0   0   0   0   0   0   0   0   1   0   1   0   1   4   0   0   1   0   0   1   1   0   0   0   0   0   0   0  20  55   0   0   1   0   3   0  11   0   0   0   0   0   0   0   0   1   0   0   1   0   1   1   0   0  
35   1   1   8   1  87   0   7   0   0  36   0  64  84   0   0   0   0  38   0   0  64  96   0   0   0   0   0   0   0   0   1   0   1   2   1  17   0   0   1   1  54   0   1   0   1   0   1   2   0   0   0   0   0   0   0   0   0   0   0  
 0   0   0   0   1   0   0   1   0   0   0   1   0   0   1  18   0   1   0   0   1   0   0   1   3   0   1   0   0   0   0   0   0   1   1   0   0   1   1  77   0   0   0   0   1   0   1   0   0   0   0   0   0   0   1   1   0   0   0   0  
 0   1   1   1   1   0   0   0   6   0   0   1   1   1   2  30   0   1   0   0   1   0   1   0   1   1   0   0  14   0   1   0   0   0   1  27   0   1   0   0   8   0   1   0   0   0   0   0   1   1   0   0   0   0  12   0   0   0   0   2  
 0   1   0   0  13   0   5   0   1   1   1   0   0  20   0   0   0   0   0   7   1   1  13   0   0   0   0   0   0   1   0   0   0   0   0   0  27   1  43   4   1   1   0   0   1   0   1   0   0   0   1   0   1   0   0   0   1   1   0   2  
 0   0  99   1   0   0   0   3   0   1   0   1   0  27   0   0   0   0   0   0  11   1   0   1   1   1   0   0  56   0   0   0   0   0   0   0   1   0   1   0   0   0   1   1   0   1   2   0  82  80   0   1   0   0   0   0   0   0   0   0  
 0   0   0  73   6   1   0   0   0   1   0   0   0   0   0   0   0   0   0   0   0   0   0   0   1   1   0   0   4   0   2   0   0   0   0   0   1   1   0   0   0   0   0  21  61   0   1   0   1   0   0   5  85   1   1   0   0   0   0   1  
57   1  24   0   0   0   0   1   0  14  16   0   2   0  77   0   0   0   1   1   0   0   0   0   0   1   1  55   0   1   0  17   0   0   0   0   0   0  36   0   0   0   0   0  24   0   0   0  43   1   0   0   1   0   0   1  58   0   1   0  
 0   0   5   1   1   0   0   0   1   1   1   1   0   0   0   0  48   0   7   0   0   0   0   0   0   1   0   0   1   1  52   0   0   0   1  40   0   0   0   0   1   1   0   0   0   0   0   1   0   0   0   0   1   1   0   0  28   1  35   0  
 0   0   0   0   0   0   1  54   0   0   0   0   1   0   0   0   0   0   0   0   1   0  15   0   1   0   0   0  16   1   0   0  13   1  89   0   0   1   0   0   1   0   0   0   2   0  38   1   0   0   0   0   1   3  28   4   0   0  32  12  
 1   0   0   0  32   1   0   0   0  46   0   0   0   0   0   0   0   0   1   1   0   0   0   0   0   1   0   1   0   0   0   0   0   0   0   0   1   1   0   0   0   0   0   0   0   4   1   0   0   9   0   0   1   0   0   1   1   0   0  34  
39   3   0   0   1  22   0   0   0   0  22   1   0   0   0   1  12  53  12   2   0   0   0   1   1   0  84   1   0   1   0   1   0   0   0   0   0   0  52   0   0   0   1   1   0   4   1   1   4   8  66  41  10   1   0   0   0   0  98   1  
 1   0   0   0   1   0   0   0   1   0   1   0   0  39   1   1   0   2   0   0   1   0   0   0   0   0   0   1   0   0   0   0   0   0   0   0   0   0   0   0  21   0   1   4  44   0   0   0   1   0   1   1   3   1   0   0  38   1  66   0  
 0  38   0   1   1   5   0   1   0   1   0  10   0   0   0   0   0   0   0   1   0   0   0   0  39   0   1   0   0   0   0   0   1   1   0   0   1   0   0   1   1   5   0   1   3   0   0   0   0   0   0   0   1   0  54   0   1   0   1  14  
 0   1   9   1   1  92   3   1  26   0   0   0   3   0   0   0   0   0   1   1   1   0   1  17   0  16   0   1   0   1  40   0  32   1   0   0   0   0   1   0   0   0  24   0   0   0   0   0   0   0   0   1   0   0   0   0   0   0   0   0  
 0   1   1   0   0  77   0   0   0  13   0   0   0   1   0   0   0   1   0   0   0   0   1   1   1   0   1  52   1   0   1   5   0   9   1   0   1   0  17   0   0   1   0   8   0   0   0   3   1   0   0   0   1   1   0  15   0  49   5   0  
 1   8   4   0   0   0   0   0   1   0  75   1   0   0   0   0   3   0   1   1   0   1   1  18   0   1   0   0   2   0   1   0   0   1   1   0   1   1   0   2   1  22  45   1   0   0  23   0   0   0   3   0   0   0   0   0   0   0   1  28  
 1   0   0   0   0   0   1   0   0   1   0   1   1  40   1   0   1   0   0   1   1   0   1   0   0   0   0   0   1   0   0   0   0   0   0   0   1   0   0   0   0   1  32   1   0  79   0   0   0   0   1   8  71   0   1   5  56   0   0   0  
 0   0   0   1   0   0   0   0   0   1   0   0   0   0   0   0   0   1   1   2   9   0  97   0   0   0   0   0   2  10   0   0   1   0  76   0   0   1   0   1   1   0   0   0  14  27   1   0   0   0   0   0   3  57   5  68   1   1   0   0  
 0   1   0   0   0   1   0   0   1   0   0   0   5   0   0   0   4   0   1  94   0   0  52   0   1   0  89   0   0   0   1  20   1   0   0   1   1   0  50   3   0   0   0   4  37   0   3   1   0   0   0   0  38   1   0   9   0   2   0   0  
 0   0  57   0   1   1  61   8   0  54   2   0  17   0  11   0   0   0   0   0   0   0   1   0   0   0   0   0  22   0   0   1   1   0   2  23  21   0  10   0   0   0  10   0   0   2   0   1  38   0   0   0   0   0   0   0   0  61   2   1  
 0   0   1   0   0  10   0   0   0   0   0   1   0   6   0   0   0  88   0   0   0   0   1   1   0   0   0   0   1   0   0   1   0   0   0  40  14   1   0  47   1   0  28   0   1   8   1   0   0   0   0  16   0   1   0   0  90   1   0   0  
 0   0   0   1   0   1  37   0   1   0  15   0   0   0  33   1   1  15   0   7  66   1   1   0   0   1   0   0   1   0   0  74  62   1   0  11   0   0   0  88   0   0  24   1   0   1   0  52   1   0   1   0  13   0  61   0   0   0   0   0  
 0   0   0   0   0   0  60   0   0  47   0   0   0   1   0   0   0   0   0   0   1   0   0   0   0   1   0   1   5   1   0   1   0   1   3   0   1   0   0   0   0   9   0   0   0   0   0   1   0   1   1   0   0   0  32   1   1   0   0   0  
 0   0   0  41   0   0   3   3   0   1   0   0   0   0   1   0   0   0   0   1   0  46   0   0   0   0   0   1   0   6  58   1   6   0  33   0   0   1   0   4   0  56   0   2   0  97   1   0   1   0   0   0   0   0   1   0   1   0  18   0  
 0   1   0   0   0   1   6   1   0   0   0   1   1   0   0   0   0   0   1   0   0   0   5   0   1   1   1   0   0  15   0   5   0  14   0   0   1   0  14   0   0   1   0   0   1   1   1   0   0   0   0  20   1  11   0   0   0   1   0   1  
 0   0   0  48   4   0   0   0   0   0   0   0   1   1   0   0   7   0   0  38   1   1   1   0   0   0   0   0   0   1   1   4  48   0  96   0  33   0   0   0   0   1  28  49   0   1   1   0   0   0   0   0   0   0   1   0   1   0   0   1  
 1   0   0   1   0   0   0   0  27   1   1   1   1   0   0   0   1   2   0   9   1  19   0  75   1   0   0  26   0   0  70  84   1   1   0   0  11   0   0   2   0   1  73   0   0   0   0   3   0   1   0   0  93  97   0   1   0   0   1   0  
 0   1   0   1   0   1   0   3   0   0   0   0   0   0  39   0   0   0   0   4   0   0  81   0  50   1   0   0   0  51   5  57   0   0   0  47   1   0   0   1   9   0   0   0   0   0  10   1   0   0   1   0   0   1   0   1   0   0   1   0  
 0  79   1   0   0   0   0   0   0   0   0   0  68   0   1   0   0   0   0   2   0   0   0   0   0   0   0   3   0   1   0   0   1   0   0  58  32   1   0  56   0  98  29   0  80   6   0   1   0   1   4   0   0   0   0   1   0   0   0   0  
 0  15   0   4  20  85   0   0   0   1   0  49   0   0   1  22  45   0   0   0   0   0   1  32   0   0   0   0   4  52   0   1  19   0   6   0   0  23  11   0  66   1   7   1   0   0   0   0   1   1   0   3   0   0   0   0   0   0   0   0  
